
  27    0


   0  14 2 3 5 6 7 8 9 10 11 12 13 24 25 26 
   6   7 23 22 19 18 17 16 4 
  10   5 21 19 17 15 14 
   5   2 20 14 
   2   2 18 16 
   1   2 17 14 
   1   2 16 15 
   9   2 16 15 
   6   2 15 14 
   6   1 14 
   5   1 14 
   9   1 14 
   1   1 14 
   5   1 27
   2   1 27
   3   1 27
   2   1 27
   7   1 27
   5   1 27
  10   1 27
   7   1 27
   2   1 27
   7   1 27
   9   1 27
   3   1 27
   4   1 27
   0   0 
